p cnf 2032
-24 -640
-25 -643
-26 -646
-27 -649
-28 -652
-29 -655
-30 -658
-31 -661
-32 -664
-33 -667
-34 -670
-35 -673
-36 -676
-37 -679
-38 -682
-39 -685
-40 -688
-41 -691
-42 -694
-43 -697
-44 -700
-45 -703
-46 -706
-47 707
-48 708
-49 709
-50 710
-51 711
-52 712
-53 713
-54 714
-55 715
-56 716
-57 717
-58 718
-59 719
-60 720
-61 721
-62 722
-63 723
-64 724
-65 725
-66 726
-67 727
-68 728
-69 -25
-69 -26
25 26 69
-70 -27
-70 -28
27 28 70
-71 -29
-71 -30
29 30 71
-72 -31
-72 -32
31 32 72
-73 -33
-73 -34
33 34 73
-74 -35
-74 -36
35 36 74
-75 -37
-75 -38
37 38 75
-76 -39
-76 -40
39 40 76
-77 -41
-77 -42
41 42 77
-78 -43
-78 -44
43 44 78
-79 -45
-79 -46
45 46 79
-80 -47
-80 -48
47 48 80
-81 -49
-81 -50
49 50 81
-82 -51
-82 -52
51 52 82
-83 -53
-83 -54
53 54 83
-84 -55
-84 -56
55 56 84
-85 -57
-85 -58
57 58 85
-86 -59
-86 -60
59 60 86
-87 -61
-87 -62
61 62 87
-88 -63
-88 -64
63 64 88
-89 -65
-89 -66
65 66 89
-90 -67
-90 -68
67 68 90
-91 69
-91 70
-69 -70 91
-92 71
-92 72
-71 -72 92
-93 73
-93 74
-73 -74 93
-94 75
-94 76
-75 -76 94
-95 77
-95 78
-77 -78 95
-96 79
-96 80
-79 -80 96
-97 81
-97 82
-81 -82 97
-98 83
-98 84
-83 -84 98
-99 85
-99 86
-85 -86 99
-100 87
-100 88
-87 -88 100
-101 89
-101 90
-89 -90 101
-102 91
-102 92
-91 -92 102
-103 93
-103 94
-93 -94 103
-104 95
-104 96
-95 -96 104
-105 97
-105 98
-97 -98 105
-106 99
-106 100
-99 -100 106
-107 102
-107 103
-102 -103 107
-108 104
-108 105
-104 -105 108
-109 101
-109 106
-101 -106 109
-110 107
-110 108
-107 -108 110
-111 109
-111 110
-109 -110 111
-112 -24
-112 25
24 -25 112
-113 24
-113 -25
-24 25 113
-114 -112
-114 -113
112 113 114
-115 24
-115 25
-24 -25 115
-116 -24
-116 -114
24 114 116
-117 24
-117 114
-24 -114 117
-118 -116
-118 -117
116 117 118
-119 24
-119 -114
-24 114 119
-120 -115
-120 -119
115 119 120
-121 -25
-121 26
25 -26 121
-122 25
-122 -26
-25 26 122
-123 -121
-123 -122
121 122 123
-124 25
-124 26
-25 -26 124
-125 120
-125 -123
-120 123 125
-126 -120
-126 123
120 -123 126
-127 -125
-127 -126
125 126 127
-128 -120
-128 -123
120 123 128
-129 -124
-129 -128
124 128 129
-130 -26
-130 27
26 -27 130
-131 26
-131 -27
-26 27 131
-132 -130
-132 -131
130 131 132
-133 26
-133 27
-26 -27 133
-134 129
-134 -132
-129 132 134
-135 -129
-135 132
129 -132 135
-136 -134
-136 -135
134 135 136
-137 -129
-137 -132
129 132 137
-138 -133
-138 -137
133 137 138
-139 -27
-139 28
27 -28 139
-140 27
-140 -28
-27 28 140
-141 -139
-141 -140
139 140 141
-142 27
-142 28
-27 -28 142
-143 138
-143 -141
-138 141 143
-144 -138
-144 141
138 -141 144
-145 -143
-145 -144
143 144 145
-146 -138
-146 -141
138 141 146
-147 -142
-147 -146
142 146 147
-148 -28
-148 29
28 -29 148
-149 28
-149 -29
-28 29 149
-150 -148
-150 -149
148 149 150
-151 28
-151 29
-28 -29 151
-152 147
-152 -150
-147 150 152
-153 -147
-153 150
147 -150 153
-154 -152
-154 -153
152 153 154
-155 -147
-155 -150
147 150 155
-156 -151
-156 -155
151 155 156
-157 -29
-157 30
29 -30 157
-158 29
-158 -30
-29 30 158
-159 -157
-159 -158
157 158 159
-160 29
-160 30
-29 -30 160
-161 156
-161 -159
-156 159 161
-162 -156
-162 159
156 -159 162
-163 -161
-163 -162
161 162 163
-164 -156
-164 -159
156 159 164
-165 -160
-165 -164
160 164 165
-166 -30
-166 31
30 -31 166
-167 30
-167 -31
-30 31 167
-168 -166
-168 -167
166 167 168
-169 30
-169 31
-30 -31 169
-170 165
-170 -168
-165 168 170
-171 -165
-171 168
165 -168 171
-172 -170
-172 -171
170 171 172
-173 -165
-173 -168
165 168 173
-174 -169
-174 -173
169 173 174
-175 -31
-175 32
31 -32 175
-176 31
-176 -32
-31 32 176
-177 -175
-177 -176
175 176 177
-178 31
-178 32
-31 -32 178
-179 174
-179 -177
-174 177 179
-180 -174
-180 177
174 -177 180
-181 -179
-181 -180
179 180 181
-182 -174
-182 -177
174 177 182
-183 -178
-183 -182
178 182 183
-184 -32
-184 33
32 -33 184
-185 32
-185 -33
-32 33 185
-186 -184
-186 -185
184 185 186
-187 32
-187 33
-32 -33 187
-188 183
-188 -186
-183 186 188
-189 -183
-189 186
183 -186 189
-190 -188
-190 -189
188 189 190
-191 -183
-191 -186
183 186 191
-192 -187
-192 -191
187 191 192
-193 -33
-193 34
33 -34 193
-194 33
-194 -34
-33 34 194
-195 -193
-195 -194
193 194 195
-196 33
-196 34
-33 -34 196
-197 192
-197 -195
-192 195 197
-198 -192
-198 195
192 -195 198
-199 -197
-199 -198
197 198 199
-200 -192
-200 -195
192 195 200
-201 -196
-201 -200
196 200 201
-202 -34
-202 35
34 -35 202
-203 34
-203 -35
-34 35 203
-204 -202
-204 -203
202 203 204
-205 34
-205 35
-34 -35 205
-206 201
-206 -204
-201 204 206
-207 -201
-207 204
201 -204 207
-208 -206
-208 -207
206 207 208
-209 -201
-209 -204
201 204 209
-210 -205
-210 -209
205 209 210
-211 -35
-211 36
35 -36 211
-212 35
-212 -36
-35 36 212
-213 -211
-213 -212
211 212 213
-214 35
-214 36
-35 -36 214
-215 210
-215 -213
-210 213 215
-216 -210
-216 213
210 -213 216
-217 -215
-217 -216
215 216 217
-218 -210
-218 -213
210 213 218
-219 -214
-219 -218
214 218 219
-220 -36
-220 37
36 -37 220
-221 36
-221 -37
-36 37 221
-222 -220
-222 -221
220 221 222
-223 36
-223 37
-36 -37 223
-224 219
-224 -222
-219 222 224
-225 -219
-225 222
219 -222 225
-226 -224
-226 -225
224 225 226
-227 -219
-227 -222
219 222 227
-228 -223
-228 -227
223 227 228
-229 -37
-229 38
37 -38 229
-230 37
-230 -38
-37 38 230
-231 -229
-231 -230
229 230 231
-232 37
-232 38
-37 -38 232
-233 228
-233 -231
-228 231 233
-234 -228
-234 231
228 -231 234
-235 -233
-235 -234
233 234 235
-236 -228
-236 -231
228 231 236
-237 -232
-237 -236
232 236 237
-238 -38
-238 39
38 -39 238
-239 38
-239 -39
-38 39 239
-240 -238
-240 -239
238 239 240
-241 38
-241 39
-38 -39 241
-242 237
-242 -240
-237 240 242
-243 -237
-243 240
237 -240 243
-244 -242
-244 -243
242 243 244
-245 -237
-245 -240
237 240 245
-246 -241
-246 -245
241 245 246
-247 -39
-247 40
39 -40 247
-248 39
-248 -40
-39 40 248
-249 -247
-249 -248
247 248 249
-250 39
-250 40
-39 -40 250
-251 246
-251 -249
-246 249 251
-252 -246
-252 249
246 -249 252
-253 -251
-253 -252
251 252 253
-254 -246
-254 -249
246 249 254
-255 -250
-255 -254
250 254 255
-256 -40
-256 41
40 -41 256
-257 40
-257 -41
-40 41 257
-258 -256
-258 -257
256 257 258
-259 40
-259 41
-40 -41 259
-260 255
-260 -258
-255 258 260
-261 -255
-261 258
255 -258 261
-262 -260
-262 -261
260 261 262
-263 -255
-263 -258
255 258 263
-264 -259
-264 -263
259 263 264
-265 -41
-265 42
41 -42 265
-266 41
-266 -42
-41 42 266
-267 -265
-267 -266
265 266 267
-268 41
-268 42
-41 -42 268
-269 264
-269 -267
-264 267 269
-270 -264
-270 267
264 -267 270
-271 -269
-271 -270
269 270 271
-272 -264
-272 -267
264 267 272
-273 -268
-273 -272
268 272 273
-274 -42
-274 43
42 -43 274
-275 42
-275 -43
-42 43 275
-276 -274
-276 -275
274 275 276
-277 42
-277 43
-42 -43 277
-278 273
-278 -276
-273 276 278
-279 -273
-279 276
273 -276 279
-280 -278
-280 -279
278 279 280
-281 -273
-281 -276
273 276 281
-282 -277
-282 -281
277 281 282
-283 -43
-283 44
43 -44 283
-284 43
-284 -44
-43 44 284
-285 -283
-285 -284
283 284 285
-286 43
-286 44
-43 -44 286
-287 282
-287 -285
-282 285 287
-288 -282
-288 285
282 -285 288
-289 -287
-289 -288
287 288 289
-290 -282
-290 -285
282 285 290
-291 -286
-291 -290
286 290 291
-292 -44
-292 45
44 -45 292
-293 44
-293 -45
-44 45 293
-294 -292
-294 -293
292 293 294
-295 44
-295 45
-44 -45 295
-296 291
-296 -294
-291 294 296
-297 -291
-297 294
291 -294 297
-298 -296
-298 -297
296 297 298
-299 -291
-299 -294
291 294 299
-300 -295
-300 -299
295 299 300
-301 -45
-301 46
45 -46 301
-302 45
-302 -46
-45 46 302
-303 -301
-303 -302
301 302 303
-304 45
-304 46
-45 -46 304
-305 300
-305 -303
-300 303 305
-306 -300
-306 303
300 -303 306
-307 -305
-307 -306
305 306 307
-308 -300
-308 -303
300 303 308
-309 -304
-309 -308
304 308 309
-310 -46
-310 47
46 -47 310
-311 46
-311 -47
-46 47 311
-312 -310
-312 -311
310 311 312
-313 46
-313 47
-46 -47 313
-314 309
-314 -312
-309 312 314
-315 -309
-315 312
309 -312 315
-316 -314
-316 -315
314 315 316
-317 -309
-317 -312
309 312 317
-318 -313
-318 -317
313 317 318
-319 -47
-319 48
47 -48 319
-320 47
-320 -48
-47 48 320
-321 -319
-321 -320
319 320 321
-322 47
-322 48
-47 -48 322
-323 318
-323 -321
-318 321 323
-324 -318
-324 321
318 -321 324
-325 -323
-325 -324
323 324 325
-326 -318
-326 -321
318 321 326
-327 -322
-327 -326
322 326 327
-328 -48
-328 49
48 -49 328
-329 48
-329 -49
-48 49 329
-330 -328
-330 -329
328 329 330
-331 48
-331 49
-48 -49 331
-332 327
-332 -330
-327 330 332
-333 -327
-333 330
327 -330 333
-334 -332
-334 -333
332 333 334
-335 -327
-335 -330
327 330 335
-336 -331
-336 -335
331 335 336
-337 -49
-337 50
49 -50 337
-338 49
-338 -50
-49 50 338
-339 -337
-339 -338
337 338 339
-340 49
-340 50
-49 -50 340
-341 336
-341 -339
-336 339 341
-342 -336
-342 339
336 -339 342
-343 -341
-343 -342
341 342 343
-344 -336
-344 -339
336 339 344
-345 -340
-345 -344
340 344 345
-346 -50
-346 51
50 -51 346
-347 50
-347 -51
-50 51 347
-348 -346
-348 -347
346 347 348
-349 50
-349 51
-50 -51 349
-350 345
-350 -348
-345 348 350
-351 -345
-351 348
345 -348 351
-352 -350
-352 -351
350 351 352
-353 -345
-353 -348
345 348 353
-354 -349
-354 -353
349 353 354
-355 -51
-355 52
51 -52 355
-356 51
-356 -52
-51 52 356
-357 -355
-357 -356
355 356 357
-358 51
-358 52
-51 -52 358
-359 354
-359 -357
-354 357 359
-360 -354
-360 357
354 -357 360
-361 -359
-361 -360
359 360 361
-362 -354
-362 -357
354 357 362
-363 -358
-363 -362
358 362 363
-364 -52
-364 53
52 -53 364
-365 52
-365 -53
-52 53 365
-366 -364
-366 -365
364 365 366
-367 52
-367 53
-52 -53 367
-368 363
-368 -366
-363 366 368
-369 -363
-369 366
363 -366 369
-370 -368
-370 -369
368 369 370
-371 -363
-371 -366
363 366 371
-372 -367
-372 -371
367 371 372
-373 -53
-373 54
53 -54 373
-374 53
-374 -54
-53 54 374
-375 -373
-375 -374
373 374 375
-376 53
-376 54
-53 -54 376
-377 372
-377 -375
-372 375 377
-378 -372
-378 375
372 -375 378
-379 -377
-379 -378
377 378 379
-380 -372
-380 -375
372 375 380
-381 -376
-381 -380
376 380 381
-382 -54
-382 55
54 -55 382
-383 54
-383 -55
-54 55 383
-384 -382
-384 -383
382 383 384
-385 54
-385 55
-54 -55 385
-386 381
-386 -384
-381 384 386
-387 -381
-387 384
381 -384 387
-388 -386
-388 -387
386 387 388
-389 -381
-389 -384
381 384 389
-390 -385
-390 -389
385 389 390
-391 -55
-391 56
55 -56 391
-392 55
-392 -56
-55 56 392
-393 -391
-393 -392
391 392 393
-394 55
-394 56
-55 -56 394
-395 390
-395 -393
-390 393 395
-396 -390
-396 393
390 -393 396
-397 -395
-397 -396
395 396 397
-398 -390
-398 -393
390 393 398
-399 -394
-399 -398
394 398 399
-400 -56
-400 57
56 -57 400
-401 56
-401 -57
-56 57 401
-402 -400
-402 -401
400 401 402
-403 56
-403 57
-56 -57 403
-404 399
-404 -402
-399 402 404
-405 -399
-405 402
399 -402 405
-406 -404
-406 -405
404 405 406
-407 -399
-407 -402
399 402 407
-408 -403
-408 -407
403 407 408
-409 -57
-409 58
57 -58 409
-410 57
-410 -58
-57 58 410
-411 -409
-411 -410
409 410 411
-412 57
-412 58
-57 -58 412
-413 408
-413 -411
-408 411 413
-414 -408
-414 411
408 -411 414
-415 -413
-415 -414
413 414 415
-416 -408
-416 -411
408 411 416
-417 -412
-417 -416
412 416 417
-418 -58
-418 59
58 -59 418
-419 58
-419 -59
-58 59 419
-420 -418
-420 -419
418 419 420
-421 58
-421 59
-58 -59 421
-422 417
-422 -420
-417 420 422
-423 -417
-423 420
417 -420 423
-424 -422
-424 -423
422 423 424
-425 -417
-425 -420
417 420 425
-426 -421
-426 -425
421 425 426
-427 -59
-427 60
59 -60 427
-428 59
-428 -60
-59 60 428
-429 -427
-429 -428
427 428 429
-430 59
-430 60
-59 -60 430
-431 426
-431 -429
-426 429 431
-432 -426
-432 429
426 -429 432
-433 -431
-433 -432
431 432 433
-434 -426
-434 -429
426 429 434
-435 -430
-435 -434
430 434 435
-436 -60
-436 61
60 -61 436
-437 60
-437 -61
-60 61 437
-438 -436
-438 -437
436 437 438
-439 60
-439 61
-60 -61 439
-440 435
-440 -438
-435 438 440
-441 -435
-441 438
435 -438 441
-442 -440
-442 -441
440 441 442
-443 -435
-443 -438
435 438 443
-444 -439
-444 -443
439 443 444
-445 -61
-445 62
61 -62 445
-446 61
-446 -62
-61 62 446
-447 -445
-447 -446
445 446 447
-448 61
-448 62
-61 -62 448
-449 444
-449 -447
-444 447 449
-450 -444
-450 447
444 -447 450
-451 -449
-451 -450
449 450 451
-452 -444
-452 -447
444 447 452
-453 -448
-453 -452
448 452 453
-454 -62
-454 63
62 -63 454
-455 62
-455 -63
-62 63 455
-456 -454
-456 -455
454 455 456
-457 62
-457 63
-62 -63 457
-458 453
-458 -456
-453 456 458
-459 -453
-459 456
453 -456 459
-460 -458
-460 -459
458 459 460
-461 -453
-461 -456
453 456 461
-462 -457
-462 -461
457 461 462
-463 -63
-463 64
63 -64 463
-464 63
-464 -64
-63 64 464
-465 -463
-465 -464
463 464 465
-466 63
-466 64
-63 -64 466
-467 462
-467 -465
-462 465 467
-468 -462
-468 465
462 -465 468
-469 -467
-469 -468
467 468 469
-470 -462
-470 -465
462 465 470
-471 -466
-471 -470
466 470 471
-472 -64
-472 65
64 -65 472
-473 64
-473 -65
-64 65 473
-474 -472
-474 -473
472 473 474
-475 64
-475 65
-64 -65 475
-476 471
-476 -474
-471 474 476
-477 -471
-477 474
471 -474 477
-478 -476
-478 -477
476 477 478
-479 -471
-479 -474
471 474 479
-480 -475
-480 -479
475 479 480
-481 -65
-481 66
65 -66 481
-482 65
-482 -66
-65 66 482
-483 -481
-483 -482
481 482 483
-484 65
-484 66
-65 -66 484
-485 480
-485 -483
-480 483 485
-486 -480
-486 483
480 -483 486
-487 -485
-487 -486
485 486 487
-488 -480
-488 -483
480 483 488
-489 -484
-489 -488
484 488 489
-490 -66
-490 67
66 -67 490
-491 66
-491 -67
-66 67 491
-492 -490
-492 -491
490 491 492
-493 66
-493 67
-66 -67 493
-494 489
-494 -492
-489 492 494
-495 -489
-495 492
489 -492 495
-496 -494
-496 -495
494 495 496
-497 -489
-497 -492
489 492 497
-498 -493
-498 -497
493 497 498
-499 -67
-499 68
67 -68 499
-500 67
-500 -68
-67 68 500
-501 -499
-501 -500
499 500 501
-502 67
-502 68
-67 -68 502
-503 498
-503 -501
-498 501 503
-504 -498
-504 501
498 -501 504
-505 -503
-505 -504
503 504 505
-506 -498
-506 -501
498 501 506
-507 -502
-507 -506
502 506 507
-508 24
-508 -118
-24 118 508
-509 -24
-509 26
24 -26 509
-510 -508
-510 -509
508 509 510
-511 24
-511 -127
-24 127 511
-512 -24
-512 27
24 -27 512
-513 -511
-513 -512
511 512 513
-514 24
-514 -136
-24 136 514
-515 -24
-515 28
24 -28 515
-516 -514
-516 -515
514 515 516
-517 24
-517 -145
-24 145 517
-518 -24
-518 29
24 -29 518
-519 -517
-519 -518
517 518 519
-520 24
-520 -154
-24 154 520
-521 -24
-521 30
24 -30 521
-522 -520
-522 -521
520 521 522
-523 24
-523 -163
-24 163 523
-524 -24
-524 31
24 -31 524
-525 -523
-525 -524
523 524 525
-526 24
-526 -172
-24 172 526
-527 -24
-527 32
24 -32 527
-528 -526
-528 -527
526 527 528
-529 24
-529 -181
-24 181 529
-530 -24
-530 33
24 -33 530
-531 -529
-531 -530
529 530 531
-532 24
-532 -190
-24 190 532
-533 -24
-533 34
24 -34 533
-534 -532
-534 -533
532 533 534
-535 24
-535 -199
-24 199 535
-536 -24
-536 35
24 -35 536
-537 -535
-537 -536
535 536 537
-538 24
-538 -208
-24 208 538
-539 -24
-539 36
24 -36 539
-540 -538
-540 -539
538 539 540
-541 24
-541 -217
-24 217 541
-542 -24
-542 37
24 -37 542
-543 -541
-543 -542
541 542 543
-544 24
-544 -226
-24 226 544
-545 -24
-545 38
24 -38 545
-546 -544
-546 -545
544 545 546
-547 24
-547 -235
-24 235 547
-548 -24
-548 39
24 -39 548
-549 -547
-549 -548
547 548 549
-550 24
-550 -244
-24 244 550
-551 -24
-551 40
24 -40 551
-552 -550
-552 -551
550 551 552
-553 24
-553 -253
-24 253 553
-554 -24
-554 41
24 -41 554
-555 -553
-555 -554
553 554 555
-556 24
-556 -262
-24 262 556
-557 -24
-557 42
24 -42 557
-558 -556
-558 -557
556 557 558
-559 24
-559 -271
-24 271 559
-560 -24
-560 43
24 -43 560
-561 -559
-561 -560
559 560 561
-562 24
-562 -280
-24 280 562
-563 -24
-563 44
24 -44 563
-564 -562
-564 -563
562 563 564
-565 24
-565 -289
-24 289 565
-566 -24
-566 45
24 -45 566
-567 -565
-567 -566
565 566 567
-568 24
-568 -298
-24 298 568
-569 -24
-569 46
24 -46 569
-570 -568
-570 -569
568 569 570
-571 24
-571 -307
-24 307 571
-572 -24
-572 47
24 -47 572
-573 -571
-573 -572
571 572 573
-574 24
-574 -316
-24 316 574
-575 -24
-575 48
24 -48 575
-576 -574
-576 -575
574 575 576
-577 24
-577 -325
-24 325 577
-578 -24
-578 49
24 -49 578
-579 -577
-579 -578
577 578 579
-580 24
-580 -334
-24 334 580
-581 -24
-581 50
24 -50 581
-582 -580
-582 -581
580 581 582
-583 24
-583 -343
-24 343 583
-584 -24
-584 51
24 -51 584
-585 -583
-585 -584
583 584 585
-586 24
-586 -352
-24 352 586
-587 -24
-587 52
24 -52 587
-588 -586
-588 -587
586 587 588
-589 24
-589 -361
-24 361 589
-590 -24
-590 53
24 -53 590
-591 -589
-591 -590
589 590 591
-592 24
-592 -370
-24 370 592
-593 -24
-593 54
24 -54 593
-594 -592
-594 -593
592 593 594
-595 24
-595 -379
-24 379 595
-596 -24
-596 55
24 -55 596
-597 -595
-597 -596
595 596 597
-598 24
-598 -388
-24 388 598
-599 -24
-599 56
24 -56 599
-600 -598
-600 -599
598 599 600
-601 24
-601 -397
-24 397 601
-602 -24
-602 57
24 -57 602
-603 -601
-603 -602
601 602 603
-604 24
-604 -406
-24 406 604
-605 -24
-605 58
24 -58 605
-606 -604
-606 -605
604 605 606
-607 24
-607 -415
-24 415 607
-608 -24
-608 59
24 -59 608
-609 -607
-609 -608
607 608 609
-610 24
-610 -424
-24 424 610
-611 -24
-611 60
24 -60 611
-612 -610
-612 -611
610 611 612
-613 24
-613 -433
-24 433 613
-614 -24
-614 61
24 -61 614
-615 -613
-615 -614
613 614 615
-616 24
-616 -442
-24 442 616
-617 -24
-617 62
24 -62 617
-618 -616
-618 -617
616 617 618
-619 24
-619 -451
-24 451 619
-620 -24
-620 63
24 -63 620
-621 -619
-621 -620
619 620 621
-622 24
-622 -460
-24 460 622
-623 -24
-623 64
24 -64 623
-624 -622
-624 -623
622 623 624
-625 24
-625 -469
-24 469 625
-626 -24
-626 65
24 -65 626
-627 -625
-627 -626
625 626 627
-628 24
-628 -478
-24 478 628
-629 -24
-629 66
24 -66 629
-630 -628
-630 -629
628 629 630
-631 24
-631 -487
-24 487 631
-632 -24
-632 67
24 -67 632
-633 -631
-633 -632
631 632 633
-634 24
-634 -496
-24 496 634
-635 -24
-635 68
24 -68 635
-636 -634
-636 -635
634 635 636
-637 24
-637 -505
-24 505 637
-638 1
-638 111
-1 -111 638
-639 -111
-639 112
111 -112 639
-640 -638
-640 -639
638 639 640
-641 2
-641 111
-2 -111 641
-642 -111
-642 -510
111 510 642
-643 -641
-643 -642
641 642 643
-644 3
-644 111
-3 -111 644
-645 -111
-645 -513
111 513 645
-646 -644
-646 -645
644 645 646
-647 4
-647 111
-4 -111 647
-648 -111
-648 -516
111 516 648
-649 -647
-649 -648
647 648 649
-650 5
-650 111
-5 -111 650
-651 -111
-651 -519
111 519 651
-652 -650
-652 -651
650 651 652
-653 6
-653 111
-6 -111 653
-654 -111
-654 -522
111 522 654
-655 -653
-655 -654
653 654 655
-656 7
-656 111
-7 -111 656
-657 -111
-657 -525
111 525 657
-658 -656
-658 -657
656 657 658
-659 8
-659 111
-8 -111 659
-660 -111
-660 -528
111 528 660
-661 -659
-661 -660
659 660 661
-662 9
-662 111
-9 -111 662
-663 -111
-663 -531
111 531 663
-664 -662
-664 -663
662 663 664
-665 10
-665 111
-10 -111 665
-666 -111
-666 -534
111 534 666
-667 -665
-667 -666
665 666 667
-668 11
-668 111
-11 -111 668
-669 -111
-669 -537
111 537 669
-670 -668
-670 -669
668 669 670
-671 12
-671 111
-12 -111 671
-672 -111
-672 -540
111 540 672
-673 -671
-673 -672
671 672 673
-674 13
-674 111
-13 -111 674
-675 -111
-675 -543
111 543 675
-676 -674
-676 -675
674 675 676
-677 14
-677 111
-14 -111 677
-678 -111
-678 -546
111 546 678
-679 -677
-679 -678
677 678 679
-680 15
-680 111
-15 -111 680
-681 -111
-681 -549
111 549 681
-682 -680
-682 -681
680 681 682
-683 16
-683 111
-16 -111 683
-684 -111
-684 -552
111 552 684
-685 -683
-685 -684
683 684 685
-686 17
-686 111
-17 -111 686
-687 -111
-687 -555
111 555 687
-688 -686
-688 -687
686 687 688
-689 18
-689 111
-18 -111 689
-690 -111
-690 -558
111 558 690
-691 -689
-691 -690
689 690 691
-692 19
-692 111
-19 -111 692
-693 -111
-693 -561
111 561 693
-694 -692
-694 -693
692 693 694
-695 20
-695 111
-20 -111 695
-696 -111
-696 -564
111 564 696
-697 -695
-697 -696
695 696 697
-698 21
-698 111
-21 -111 698
-699 -111
-699 -567
111 567 699
-700 -698
-700 -699
698 699 700
-701 22
-701 111
-22 -111 701
-702 -111
-702 -570
111 570 702
-703 -701
-703 -702
701 702 703
-704 23
-704 111
-23 -111 704
-705 -111
-705 -573
111 573 705
-706 -704
-706 -705
704 705 706
-707 -111
-707 -576
111 576 707
-708 -111
-708 -579
111 579 708
-709 -111
-709 -582
111 582 709
-710 -111
-710 -585
111 585 710
-711 -111
-711 -588
111 588 711
-712 -111
-712 -591
111 591 712
-713 -111
-713 -594
111 594 713
-714 -111
-714 -597
111 597 714
-715 -111
-715 -600
111 600 715
-716 -111
-716 -603
111 603 716
-717 -111
-717 -606
111 606 717
-718 -111
-718 -609
111 609 718
-719 -111
-719 -612
111 612 719
-720 -111
-720 -615
111 615 720
-721 -111
-721 -618
111 618 721
-722 -111
-722 -621
111 621 722
-723 -111
-723 -624
111 624 723
-724 -111
-724 -627
111 627 724
-725 -111
-725 -630
111 630 725
-726 -111
-726 -633
111 633 726
-727 -111
-727 -636
111 636 727
-728 -111
-728 637
111 -637 728
-729 -68
-729 507
68 -507 729
-730 24
-730 -729
-24 729 730
730
